% Logging successfully configured
%%%mzn-stat: initTime=0.041259036
%%%mzn-stat: objective=928
%%%mzn-stat: nodes=805808
%%%mzn-stat: restarts=0
%%%mzn-stat: peakDepth=1116
%%%mzn-stat: solveTime=426.35430251
%%%mzn-stat: variables=1717
%%%mzn-stat: propagators=6315
%%%mzn-stat: failures=691568
%%%mzn-stat: propagations=411576900
%%%mzn-stat: nogoods=691568
%%%mzn-stat: numAtomicConstraintsPropagated=0
%%%mzn-stat: circuitNumber4951PropagationsThatFoundConflict=28409
%%%mzn-stat: circuitNumber4951TotalFixedEdgesAtConflict=2375412
%%%mzn-stat: circuitNumber4951NumberOfConflicts=28409
%%%mzn-stat: circuitNumber4951PropagationsThatPruned=152200
%%%mzn-stat: circuitNumber4951PropagationsTotal=792638
%%%mzn-stat: AverageConflictSize=25.680706741780995
%%%mzn-stat: NumUnitNogoodsLearned=0
%%%mzn-stat: AverageLearnedNogoodLength=81.809982532448
%%%mzn-stat: AverageBacktrackAmount=0
%%%mzn-stat: AverageLbd=42.550891597066375
%%%mzn-stat: 2AutonomousSearchNumBackupCalled=1039
%%%mzn-stat: 2AutonomousSearchNumPredicatesRemoved=0
%%%mzn-stat: 2AutonomousSearchNumCalls=1040
%%%mzn-stat: 2AutonomousSearchNumPredicatesAdded=3561
%%%mzn-stat: 2AutonomousSearchAverageSizeOfHeap=3.4240384615384616
%%%mzn-stat: 2AutonomousSearchNumAssignedPredicatesEncountered=3561
%%%mzn-stat-end
maxleg = 928;
succ = array1d(1..100,[16, 4, 8, 3, 19, 7, 10, 12, 11, 17, 23, 14, 18, 31, 26, 2, 24, 20, 33, 21, 25, 1, 34, 13, 30, 5, 35, 6, 48, 22, 51, 36, 40, 42, 49, 15, 39, 53, 32, 50, 44, 52, 28, 9, 63, 27, 62, 37, 55, 60, 41, 54, 45, 77, 57, 59, 58, 69, 74, 64, 56, 70, 29, 92, 38, 43, 47, 46, 66, 75, 72, 91, 68, 81, 65, 67, 89, 61, 78, 84, 86, 71, 82, 73, 88, 98, 76, 93, 87, 80, 85, 94, 96, 95, 79, 97, 100, 99, 83, 90]);
% time elapsed: 434.01 s
----------
%%%mzn-stat: initTime=0.041259036
%%%mzn-stat: objective=831
%%%mzn-stat: nodes=810777
%%%mzn-stat: restarts=0
%%%mzn-stat: peakDepth=1116
%%%mzn-stat: solveTime=427.693012392
%%%mzn-stat: variables=1717
%%%mzn-stat: propagators=6315
%%%mzn-stat: failures=694881
%%%mzn-stat: propagations=413607150
%%%mzn-stat: nogoods=694881
%%%mzn-stat: numAtomicConstraintsPropagated=0
%%%mzn-stat: circuitNumber4951PropagationsThatFoundConflict=28534
%%%mzn-stat: circuitNumber4951TotalFixedEdgesAtConflict=2386113
%%%mzn-stat: circuitNumber4951NumberOfConflicts=28534
%%%mzn-stat: circuitNumber4951PropagationsThatPruned=153084
%%%mzn-stat: circuitNumber4951PropagationsTotal=796718
%%%mzn-stat: AverageConflictSize=25.625505662120563
%%%mzn-stat: NumUnitNogoodsLearned=0
%%%mzn-stat: AverageLearnedNogoodLength=81.6397426321917
%%%mzn-stat: AverageBacktrackAmount=0
%%%mzn-stat: AverageLbd=42.46324766398851
%%%mzn-stat: 2AutonomousSearchNumBackupCalled=2061
%%%mzn-stat: 2AutonomousSearchNumPredicatesRemoved=0
%%%mzn-stat: 2AutonomousSearchNumCalls=2063
%%%mzn-stat: 2AutonomousSearchNumPredicatesAdded=5736
%%%mzn-stat: 2AutonomousSearchAverageSizeOfHeap=3.453708191953466
%%%mzn-stat: 2AutonomousSearchNumAssignedPredicatesEncountered=7125
%%%mzn-stat-end
maxleg = 831;
succ = array1d(1..100,[16, 4, 8, 3, 19, 7, 10, 12, 11, 17, 23, 14, 18, 31, 26, 2, 24, 20, 33, 21, 25, 1, 34, 13, 30, 5, 35, 6, 48, 22, 51, 36, 40, 42, 49, 15, 39, 53, 32, 50, 44, 52, 28, 9, 63, 27, 62, 37, 55, 60, 41, 54, 45, 77, 57, 59, 58, 69, 74, 64, 56, 70, 29, 92, 47, 85, 75, 46, 66, 76, 38, 71, 68, 81, 43, 67, 89, 61, 78, 84, 86, 72, 90, 73, 88, 82, 79, 91, 87, 80, 100, 94, 65, 95, 98, 93, 96, 99, 83, 97]);
% time elapsed: 435.31 s
----------
%%%mzn-stat: initTime=0.041259036
%%%mzn-stat: objective=629
%%%mzn-stat: nodes=811917
%%%mzn-stat: restarts=0
%%%mzn-stat: peakDepth=1116
%%%mzn-stat: solveTime=427.715785518
%%%mzn-stat: variables=1717
%%%mzn-stat: propagators=6315
%%%mzn-stat: failures=694911
%%%mzn-stat: propagations=413634063
%%%mzn-stat: nogoods=694911
%%%mzn-stat: numAtomicConstraintsPropagated=0
%%%mzn-stat: circuitNumber4951PropagationsThatFoundConflict=28563
%%%mzn-stat: circuitNumber4951TotalFixedEdgesAtConflict=2388919
%%%mzn-stat: circuitNumber4951NumberOfConflicts=28563
%%%mzn-stat: circuitNumber4951PropagationsThatPruned=153100
%%%mzn-stat: circuitNumber4951PropagationsTotal=796860
%%%mzn-stat: AverageConflictSize=25.626960862614062
%%%mzn-stat: NumUnitNogoodsLearned=0
%%%mzn-stat: AverageLearnedNogoodLength=81.63851486017634
%%%mzn-stat: AverageBacktrackAmount=0
%%%mzn-stat: AverageLbd=42.46349676433385
%%%mzn-stat: 2AutonomousSearchNumBackupCalled=3092
%%%mzn-stat: 2AutonomousSearchNumPredicatesRemoved=0
%%%mzn-stat: 2AutonomousSearchNumCalls=3095
%%%mzn-stat: 2AutonomousSearchNumPredicatesAdded=6230
%%%mzn-stat: 2AutonomousSearchAverageSizeOfHeap=3.4536348949919224
%%%mzn-stat: 2AutonomousSearchNumAssignedPredicatesEncountered=10689
%%%mzn-stat-end
maxleg = 629;
succ = array1d(1..100,[16, 4, 8, 3, 19, 7, 10, 12, 11, 17, 23, 14, 18, 31, 26, 2, 24, 20, 33, 21, 25, 1, 34, 13, 30, 5, 35, 6, 48, 22, 51, 36, 40, 42, 49, 15, 39, 53, 32, 50, 44, 52, 28, 9, 63, 27, 62, 37, 55, 60, 41, 54, 45, 77, 57, 59, 58, 69, 74, 64, 56, 70, 29, 92, 88, 43, 47, 46, 66, 75, 38, 71, 68, 81, 65, 67, 89, 61, 78, 84, 86, 83, 90, 73, 91, 98, 76, 93, 87, 100, 72, 94, 96, 95, 79, 97, 85, 99, 82, 80]);
% time elapsed: 435.34 s
----------
%%%mzn-stat: initTime=0.041259036
%%%mzn-stat: objective=310
%%%mzn-stat: nodes=3123482
%%%mzn-stat: restarts=0
%%%mzn-stat: peakDepth=1116
%%%mzn-stat: solveTime=1122.639991465
%%%mzn-stat: variables=1717
%%%mzn-stat: propagators=6315
%%%mzn-stat: failures=1759163
%%%mzn-stat: propagations=1156804206
%%%mzn-stat: nogoods=1759163
%%%mzn-stat: numAtomicConstraintsPropagated=0
%%%mzn-stat: circuitNumber4951PropagationsThatFoundConflict=1020438
%%%mzn-stat: circuitNumber4951TotalFixedEdgesAtConflict=97579093
%%%mzn-stat: circuitNumber4951NumberOfConflicts=1020438
%%%mzn-stat: circuitNumber4951PropagationsThatPruned=751058
%%%mzn-stat: circuitNumber4951PropagationsTotal=4429294
%%%mzn-stat: AverageConflictSize=46.256151931344625
%%%mzn-stat: NumUnitNogoodsLearned=0
%%%mzn-stat: AverageLearnedNogoodLength=66.69935872912288
%%%mzn-stat: AverageBacktrackAmount=0
%%%mzn-stat: AverageLbd=46.4329610161196
%%%mzn-stat: 2AutonomousSearchNumBackupCalled=4096
%%%mzn-stat: 2AutonomousSearchNumPredicatesRemoved=0
%%%mzn-stat: 2AutonomousSearchNumCalls=4100
%%%mzn-stat: 2AutonomousSearchNumPredicatesAdded=9349
%%%mzn-stat: 2AutonomousSearchAverageSizeOfHeap=3.4763414634146343
%%%mzn-stat: 2AutonomousSearchNumAssignedPredicatesEncountered=14253
%%%mzn-stat-end
maxleg = 310;
succ = array1d(1..100,[16, 4, 8, 3, 19, 7, 10, 12, 11, 17, 23, 14, 18, 31, 26, 2, 24, 20, 33, 21, 25, 1, 34, 13, 30, 5, 35, 6, 48, 22, 51, 36, 40, 42, 49, 15, 39, 53, 32, 50, 44, 52, 28, 9, 63, 27, 62, 37, 55, 60, 41, 54, 45, 77, 57, 59, 58, 69, 74, 73, 56, 70, 64, 92, 88, 43, 47, 46, 66, 75, 29, 71, 80, 81, 65, 67, 89, 61, 78, 84, 86, 72, 99, 68, 91, 82, 76, 85, 87, 83, 93, 94, 96, 95, 79, 97, 100, 38, 98, 90]);
% time elapsed: 1130.27 s
----------
%%%mzn-stat: initTime=0.041259036
%%%mzn-stat: objective=306
%%%mzn-stat: nodes=3124607
%%%mzn-stat: restarts=0
%%%mzn-stat: peakDepth=1116
%%%mzn-stat: solveTime=1122.662956149
%%%mzn-stat: variables=1717
%%%mzn-stat: propagators=6315
%%%mzn-stat: failures=1759190
%%%mzn-stat: propagations=1156829518
%%%mzn-stat: nogoods=1759190
%%%mzn-stat: numAtomicConstraintsPropagated=0
%%%mzn-stat: circuitNumber4951PropagationsThatFoundConflict=1020464
%%%mzn-stat: circuitNumber4951TotalFixedEdgesAtConflict=97581615
%%%mzn-stat: circuitNumber4951NumberOfConflicts=1020464
%%%mzn-stat: circuitNumber4951PropagationsThatPruned=751073
%%%mzn-stat: circuitNumber4951PropagationsTotal=4429429
%%%mzn-stat: AverageConflictSize=46.25666698878461
%%%mzn-stat: NumUnitNogoodsLearned=0
%%%mzn-stat: AverageLearnedNogoodLength=66.69942416680404
%%%mzn-stat: AverageBacktrackAmount=0
%%%mzn-stat: AverageLbd=46.433257919838105
%%%mzn-stat: 2AutonomousSearchNumBackupCalled=5115
%%%mzn-stat: 2AutonomousSearchNumPredicatesRemoved=0
%%%mzn-stat: 2AutonomousSearchNumCalls=5120
%%%mzn-stat: 2AutonomousSearchNumPredicatesAdded=9666
%%%mzn-stat: 2AutonomousSearchAverageSizeOfHeap=3.4798828125
%%%mzn-stat: 2AutonomousSearchNumAssignedPredicatesEncountered=17817
%%%mzn-stat-end
maxleg = 306;
succ = array1d(1..100,[16, 4, 8, 3, 19, 7, 10, 12, 11, 17, 23, 14, 18, 31, 26, 2, 24, 20, 33, 21, 25, 1, 34, 13, 30, 5, 35, 6, 48, 22, 51, 36, 40, 42, 49, 15, 39, 53, 32, 50, 44, 52, 28, 9, 63, 27, 62, 37, 55, 60, 41, 54, 45, 77, 57, 59, 58, 69, 74, 73, 56, 70, 64, 92, 88, 43, 47, 46, 66, 75, 29, 71, 80, 81, 65, 67, 89, 79, 61, 84, 86, 72, 99, 68, 91, 82, 76, 85, 87, 83, 93, 94, 96, 78, 38, 97, 100, 95, 98, 90]);
% time elapsed: 1130.30 s
----------
%%%mzn-stat: initTime=0.041259036
%%%mzn-stat: objective=273
%%%mzn-stat: nodes=3128344
%%%mzn-stat: restarts=0
%%%mzn-stat: peakDepth=1116
%%%mzn-stat: solveTime=1124.13410445
%%%mzn-stat: variables=1717
%%%mzn-stat: propagators=6315
%%%mzn-stat: failures=1761589
%%%mzn-stat: propagations=1158250621
%%%mzn-stat: nogoods=1761589
%%%mzn-stat: numAtomicConstraintsPropagated=0
%%%mzn-stat: circuitNumber4951PropagationsThatFoundConflict=1020496
%%%mzn-stat: circuitNumber4951TotalFixedEdgesAtConflict=97584314
%%%mzn-stat: circuitNumber4951NumberOfConflicts=1020496
%%%mzn-stat: circuitNumber4951PropagationsThatPruned=751925
%%%mzn-stat: circuitNumber4951PropagationsTotal=4432467
%%%mzn-stat: AverageConflictSize=46.22445473944263
%%%mzn-stat: NumUnitNogoodsLearned=0
%%%mzn-stat: AverageLearnedNogoodLength=66.71408938180245
%%%mzn-stat: AverageBacktrackAmount=0
%%%mzn-stat: AverageLbd=46.42985509105699
%%%mzn-stat: 2AutonomousSearchNumBackupCalled=6139
%%%mzn-stat: 2AutonomousSearchNumPredicatesRemoved=0
%%%mzn-stat: 2AutonomousSearchNumCalls=6145
%%%mzn-stat: 2AutonomousSearchNumPredicatesAdded=12538
%%%mzn-stat: 2AutonomousSearchAverageSizeOfHeap=3.48559804719284
%%%mzn-stat: 2AutonomousSearchNumAssignedPredicatesEncountered=21419
%%%mzn-stat-end
maxleg = 273;
succ = array1d(1..100,[16, 4, 8, 3, 19, 7, 10, 12, 11, 17, 23, 14, 18, 31, 26, 2, 24, 20, 33, 21, 25, 1, 34, 13, 30, 5, 35, 6, 48, 22, 51, 36, 40, 42, 49, 15, 39, 53, 32, 50, 44, 52, 28, 9, 63, 27, 62, 37, 55, 60, 41, 54, 45, 77, 57, 59, 58, 69, 74, 73, 79, 70, 64, 92, 88, 43, 47, 46, 66, 75, 29, 71, 80, 81, 65, 67, 89, 61, 56, 84, 86, 72, 99, 68, 91, 82, 76, 85, 87, 83, 93, 94, 96, 78, 38, 97, 100, 95, 98, 90]);
% time elapsed: 1131.77 s
----------
%%%mzn-stat: initTime=0.041259036
%%%mzn-stat: objective=273
%%%mzn-stat: nodes=4983875
%%%mzn-stat: restarts=0
%%%mzn-stat: peakDepth=1116
%%%mzn-stat: solveTime=1792.624077398
%%%mzn-stat: variables=1717
%%%mzn-stat: propagators=6315
%%%mzn-stat: failures=2780004
%%%mzn-stat: propagations=1820590793
%%%mzn-stat: nogoods=2780004
%%%mzn-stat: numAtomicConstraintsPropagated=0
%%%mzn-stat: circuitNumber4951PropagationsThatFoundConflict=1867863
%%%mzn-stat: circuitNumber4951TotalFixedEdgesAtConflict=178904441
%%%mzn-stat: circuitNumber4951NumberOfConflicts=1867863
%%%mzn-stat: circuitNumber4951PropagationsThatPruned=1304613
%%%mzn-stat: circuitNumber4951PropagationsTotal=7512346
%%%mzn-stat: AverageConflictSize=49.59567036594192
%%%mzn-stat: NumUnitNogoodsLearned=0
%%%mzn-stat: AverageLearnedNogoodLength=63.19617885441892
%%%mzn-stat: AverageBacktrackAmount=0
%%%mzn-stat: AverageLbd=46.874950539639514
%%%mzn-stat: 2AutonomousSearchNumBackupCalled=6139
%%%mzn-stat: 2AutonomousSearchNumPredicatesRemoved=0
%%%mzn-stat: 2AutonomousSearchNumCalls=6145
%%%mzn-stat: 2AutonomousSearchNumPredicatesAdded=16333
%%%mzn-stat: 2AutonomousSearchAverageSizeOfHeap=3.48559804719284
%%%mzn-stat: 2AutonomousSearchNumAssignedPredicatesEncountered=21419
%%%mzn-stat-end
